networks/zoo_140_3864/zoo_140_3864-lower.txt
Number of groups: 70
Flow 1: {1 2 0} {2 72 0} 
Flow 2: {1 28 0} {28 4 0} {4 3 0} {3 73 0} 
Flow 3: {4 74 0} 
Flow 4: {5 75 0} 
Flow 5: {2 8 0} {8 5 0} {6 76 0} 
Flow 6: {2 7 0} {7 77 0} 
Flow 7: {8 78 0} 
Flow 8: {5 6 0} {6 58 0} {58 49 0} {49 9 0} {9 79 0} 
Flow 9: {6 11 0} {11 81 0} 
Flow 10: {6 12 0} {12 82 0} 
Flow 11: {28 10 0} {10 47 0} {47 30 0} {67 13 0} {13 83 0} 
Flow 11: {68 29 0} {29 67 0} {30 68 0} Flow 12: {30 14 0} {14 84 0} 
Flow 13: {14 15 0} {15 85 0} 
Flow 14: {14 32 0} {32 27 0} {27 16 0} {16 86 0} 
Flow 15: {7 39 0} {39 42 0} {42 41 0} {56 17 0} {17 87 0} 
Flow 15: {41 40 0} {40 56 0} Flow 16: {17 18 0} {18 88 0} 
Flow 17: {49 48 0} {48 21 0} {21 91 0} 
Flow 18: {21 22 0} {22 92 0} 
Flow 19: {55 23 0} {23 93 0} 
Flow 19: {58 51 0} {51 55 0} Flow 20: {23 24 0} {24 94 0} 
Flow 21: {12 54 0} {54 26 0} {26 25 0} {25 95 0} 
Flow 22: {26 96 0} 
Flow 23: {27 97 0} 
Flow 24: {28 98 0} 
Flow 25: {29 99 0} 
Flow 26: {30 100 0} 
Flow 27: {46 31 0} {31 101 0} 
Flow 27: {43 34 0} {34 46 0} {39 43 0} Flow 28: {32 102 0} 
Flow 29: {46 45 0} {45 33 0} {33 103 0} 
Flow 30: {34 104 0} 
Flow 31: {2 35 0} {35 105 0} 
Flow 32: {54 36 0} {36 106 0} 
Flow 33: {2 38 0} {38 37 0} {37 107 0} 
Flow 34: {38 108 0} 
Flow 35: {41 111 0} 
Flow 36: {42 112 0} 
Flow 37: {43 113 0} 
Flow 38: {47 44 0} {44 114 0} 
Flow 39: {45 115 0} 
Flow 40: {46 116 0} 
Flow 41: {47 117 0} 
Flow 42: {48 118 0} 
Flow 43: {49 119 0} 
Flow 44: {51 121 0} 
Flow 45: {36 52 0} {52 122 0} 
Flow 46: {36 53 0} {53 123 0} 
Flow 47: {54 124 0} 
Flow 48: {55 125 0} 
Flow 49: {56 126 0} 
Flow 50: {58 57 0} {57 127 0} 
Flow 51: {58 128 0} 
Flow 52: {31 60 0} {60 59 0} {59 129 0} 
Flow 53: {60 130 0} 
Flow 54: {3 62 0} {62 132 0} 
Flow 55: {29 66 0} {66 64 0} {64 63 0} {63 133 0} 
Flow 56: {64 134 0} 
Flow 57: {64 65 0} {65 135 0} 
Flow 58: {67 137 0} 
Flow 59: {68 138 0} 
Flow 60: {68 69 0} {69 139 0} 
Flow 61: {62 70 0} {70 140 0} 
Flow 62: {2 1 0} {1 71 0} 
Flow 63: {35 4 0} Flow 75: {34 50 0} {50 32 0} Flow 78: {48 19 0} {19 89 0} 
Flow 79: {19 20 0} {20 90 0} 
Flow 98: {40 110 0} 
Flow 118: {70 61 0} {61 131 0} 
Flow 123: {66 136 0} 
Flow 128: {4 28 0} {28 1 0} Flow 129: {4 35 0} {35 2 0} Flow 136: {3 10 0} {10 80 0} 
Flow 144: {32 45 0} {45 60 0} {59 18 0} Flow 165: {39 109 0} 
Flow 194: {61 69 0} Flow 197: {5 8 0} {8 2 0} Flow 210: {57 56 0} Flow 224: {18 59 0} {59 60 0} {60 33 0} Flow 230: {56 40 0} {40 41 0} Flow 257: {6 5 0} Flow 284: {60 31 0} Flow 297: {60 45 0} Flow 322: {7 2 0} Flow 332: {16 13 0} Flow 333: {32 14 0} Flow 454: {9 49 0} {49 58 0} {58 6 0} Flow 464: {45 32 0} Flow 473: {9 55 0} {23 22 0} Flow 476: {23 25 0} Flow 477: {25 26 0} Flow 492: {41 42 0} Flow 496: {31 46 0} Flow 500: {9 51 0} Flow 520: {10 28 0} Flow 522: {10 3 0} Flow 523: {3 4 0} Flow 535: {18 17 0} Flow 549: {32 50 0} {50 46 0} Flow 552: {50 34 0} Flow 568: {50 120 0} 
Flow 589: {11 6 0} Flow 590: {12 6 0} Flow 609: {25 23 0} Flow 656: {13 67 0} {67 29 0} {29 68 0} {68 30 0} {30 47 0} {47 10 0} Flow 662: {13 16 0} {16 27 0} {27 32 0} {34 43 0} {43 39 0} {39 7 0} Flow 664: {17 56 0} {56 57 0} {57 58 0} Flow 708: {69 61 0} {61 70 0} {70 62 0} Flow 714: {14 30 0} Flow 764: {15 14 0} Flow 857: {42 39 0} Flow 887: {46 34 0} Flow 985: {19 48 0} {48 49 0} Flow 989: {20 21 0} Flow 991: {22 23 0} Flow 1006: {20 19 0} Flow 1035: {26 54 0} Flow 1046: {23 55 0} Flow 1056: {21 48 0} Flow 1074: {21 20 0} Flow 1104: {55 51 0} Flow 1124: {22 21 0} Flow 1132: {55 9 0} Flow 1134: {54 12 0} Flow 1190: {51 58 0} Flow 1258: {24 23 0} Flow 1708: {33 45 0} {45 46 0} Flow 1711: {33 60 0} Flow 1856: {36 54 0} Flow 1922: {37 38 0} {38 2 0} Flow 2351: {44 47 0} Flow 2773: {51 9 0} Flow 2827: {52 36 0} Flow 2886: {53 36 0} Flow 3321: {46 50 0} Flow 3341: {62 3 0} Flow 3352: {69 68 0} Flow 3407: {63 64 0} {64 66 0} {66 29 0} Flow 3529: {65 64 0} Time taken running everything: 1 seconds
