networks/zoo_140_3864/zoo_140_3864-lower.sol
<?xml version = "1.0" encoding="UTF-8" standalone="yes"?>
<CPLEXSolution version="1.2">
 <header
   problemName="networks/zoo_140_3864/zoo_140_3864-lower.lp"
   solutionName="incumbent"
   solutionIndex="-1"
   objectiveValue="70"
   solutionTypeValue="3"
   solutionTypeString="primal"
   solutionStatusValue="101"
   solutionStatusString="integer optimal solution"
   solutionMethodString="mip"
   primalFeasible="1"
   dualFeasible="1"
   MIPNodes="0"
   MIPIterations="0"
   writeLevel="3"/>
 <quality
   epInt="1.0000000000000001e-05"
   epRHS="9.9999999999999995e-07"
   maxIntInfeas="0"
   maxPrimalInfeas="0"
   maxX="1"
   maxSlack="1"/>
 <variables>
  <variable name="Y(1,2)" index="1" value="1"/>
  <variable name="Y(2,3)" index="142" value="1"/>
  <variable name="Y(3,4)" index="283" value="1"/>
  <variable name="Y(4,5)" index="424" value="1"/>
  <variable name="Y(5,6)" index="565" value="1"/>
  <variable name="Y(6,7)" index="706" value="1"/>
  <variable name="Y(7,8)" index="847" value="1"/>
  <variable name="Y(8,9)" index="988" value="1"/>
  <variable name="Y(9,11)" index="1130" value="1"/>
  <variable name="Y(10,12)" index="1271" value="1"/>
  <variable name="Y(11,13)" index="1412" value="1"/>
  <variable name="Y(12,14)" index="1553" value="1"/>
  <variable name="Y(13,15)" index="1694" value="1"/>
  <variable name="Y(14,16)" index="1835" value="1"/>
  <variable name="Y(15,17)" index="1976" value="1"/>
  <variable name="Y(16,18)" index="2117" value="1"/>
  <variable name="Y(17,21)" index="2260" value="1"/>
  <variable name="Y(18,22)" index="2401" value="1"/>
  <variable name="Y(19,23)" index="2542" value="1"/>
  <variable name="Y(20,24)" index="2683" value="1"/>
  <variable name="Y(21,25)" index="2824" value="1"/>
  <variable name="Y(22,26)" index="2965" value="1"/>
  <variable name="Y(23,27)" index="3106" value="1"/>
  <variable name="Y(24,28)" index="3247" value="1"/>
  <variable name="Y(25,29)" index="3388" value="1"/>
  <variable name="Y(26,30)" index="3529" value="1"/>
  <variable name="Y(27,31)" index="3670" value="1"/>
  <variable name="Y(28,32)" index="3811" value="1"/>
  <variable name="Y(29,33)" index="3952" value="1"/>
  <variable name="Y(30,34)" index="4093" value="1"/>
  <variable name="Y(31,35)" index="4234" value="1"/>
  <variable name="Y(32,36)" index="4375" value="1"/>
  <variable name="Y(33,37)" index="4516" value="1"/>
  <variable name="Y(34,38)" index="4657" value="1"/>
  <variable name="Y(35,41)" index="4800" value="1"/>
  <variable name="Y(36,42)" index="4941" value="1"/>
  <variable name="Y(37,43)" index="5082" value="1"/>
  <variable name="Y(38,44)" index="5223" value="1"/>
  <variable name="Y(39,45)" index="5364" value="1"/>
  <variable name="Y(40,46)" index="5505" value="1"/>
  <variable name="Y(41,47)" index="5646" value="1"/>
  <variable name="Y(42,48)" index="5787" value="1"/>
  <variable name="Y(43,49)" index="5928" value="1"/>
  <variable name="Y(44,51)" index="6070" value="1"/>
  <variable name="Y(45,52)" index="6211" value="1"/>
  <variable name="Y(46,53)" index="6352" value="1"/>
  <variable name="Y(47,54)" index="6493" value="1"/>
  <variable name="Y(48,55)" index="6634" value="1"/>
  <variable name="Y(49,56)" index="6775" value="1"/>
  <variable name="Y(50,57)" index="6916" value="1"/>
  <variable name="Y(51,58)" index="7057" value="1"/>
  <variable name="Y(52,59)" index="7198" value="1"/>
  <variable name="Y(53,60)" index="7339" value="1"/>
  <variable name="Y(54,62)" index="7481" value="1"/>
  <variable name="Y(55,63)" index="7622" value="1"/>
  <variable name="Y(56,64)" index="7763" value="1"/>
  <variable name="Y(57,65)" index="7904" value="1"/>
  <variable name="Y(58,67)" index="8046" value="1"/>
  <variable name="Y(59,68)" index="8187" value="1"/>
  <variable name="Y(60,69)" index="8328" value="1"/>
  <variable name="Y(61,70)" index="8469" value="1"/>
  <variable name="Y(62,1)" index="8540" value="1"/>
  <variable name="Y(78,19)" index="10798" value="1"/>
  <variable name="Y(79,20)" index="10939" value="1"/>
  <variable name="Y(98,40)" index="13619" value="1"/>
  <variable name="Y(118,61)" index="16440" value="1"/>
  <variable name="Y(123,66)" index="17145" value="1"/>
  <variable name="Y(136,10)" index="18909" value="1"/>
  <variable name="Y(165,39)" index="22998" value="1"/>
  <variable name="Y(568,50)" index="79429" value="1"/>
  <variable name="X(1,2,1)" index="540960" value="1"/>
  <variable name="X(1,28,2)" index="544825" value="1"/>
  <variable name="X(1,71,62)" index="548749" value="1"/>
  <variable name="X(2,1,62)" index="552613" value="1"/>
  <variable name="X(2,7,6)" index="556421" value="1"/>
  <variable name="X(2,8,5)" index="560284" value="1"/>
  <variable name="X(2,35,31)" index="564174" value="1"/>
  <variable name="X(2,38,33)" index="568040" value="1"/>
  <variable name="X(2,72,1)" index="571872" value="1"/>
  <variable name="X(3,4,523)" index="576258" value="1"/>
  <variable name="X(3,10,136)" index="579735" value="1"/>
  <variable name="X(3,62,54)" index="583517" value="1"/>
  <variable name="X(3,73,2)" index="587329" value="1"/>
  <variable name="X(4,3,2)" index="591193" value="1"/>
  <variable name="X(4,28,128)" index="595183" value="1"/>
  <variable name="X(4,35,129)" index="599048" value="1"/>
  <variable name="X(4,74,3)" index="602786" value="1"/>
  <variable name="X(5,6,8)" index="606655" value="1"/>
  <variable name="X(5,8,197)" index="610708" value="1"/>
  <variable name="X(5,75,4)" index="614379" value="1"/>
  <variable name="X(6,5,257)" index="618496" value="1"/>
  <variable name="X(6,11,9)" index="622112" value="1"/>
  <variable name="X(6,12,10)" index="625977" value="1"/>
  <variable name="X(6,58,8)" index="629839" value="1"/>
  <variable name="X(6,76,5)" index="633700" value="1"/>
  <variable name="X(7,2,322)" index="637881" value="1"/>
  <variable name="X(7,39,15)" index="641438" value="1"/>
  <variable name="X(7,77,6)" index="645293" value="1"/>
  <variable name="X(8,2,197)" index="649348" value="1"/>
  <variable name="X(8,5,5)" index="653020" value="1"/>
  <variable name="X(8,78,7)" index="656886" value="1"/>
  <variable name="X(9,49,454)" index="661197" value="1"/>
  <variable name="X(9,51,500)" index="665107" value="1"/>
  <variable name="X(9,55,473)" index="668944" value="1"/>
  <variable name="X(9,79,8)" index="672343" value="1"/>
  <variable name="X(10,3,522)" index="676721" value="1"/>
  <variable name="X(10,28,520)" index="680583" value="1"/>
  <variable name="X(10,47,11)" index="683938" value="1"/>
  <variable name="X(10,80,136)" index="687927" value="1"/>
  <variable name="X(11,6,589)" index="692244" value="1"/>
  <variable name="X(11,81,9)" index="695528" value="1"/>
  <variable name="X(12,6,590)" index="699973" value="1"/>
  <variable name="X(12,54,21)" index="703268" value="1"/>
  <variable name="X(12,82,10)" index="707121" value="1"/>
  <variable name="X(13,16,662)" index="711637" value="1"/>
  <variable name="X(13,67,656)" index="715495" value="1"/>
  <variable name="X(13,83,11)" index="718714" value="1"/>
  <variable name="X(14,15,13)" index="722580" value="1"/>
  <variable name="X(14,30,714)" index="727145" value="1"/>
  <variable name="X(14,32,14)" index="730309" value="1"/>
  <variable name="X(14,84,12)" index="734171" value="1"/>
  <variable name="X(15,14,764)" index="738787" value="1"/>
  <variable name="X(15,85,13)" index="741900" value="1"/>
  <variable name="X(16,13,332)" index="746083" value="1"/>
  <variable name="X(16,27,662)" index="750277" value="1"/>
  <variable name="X(16,86,14)" index="753493" value="1"/>
  <variable name="X(17,18,16)" index="757359" value="1"/>
  <variable name="X(17,56,664)" index="761871" value="1"/>
  <variable name="X(17,87,15)" index="765086" value="1"/>
  <variable name="X(18,17,535)" index="769470" value="1"/>
  <variable name="X(18,59,224)" index="773023" value="1"/>
  <variable name="X(18,88,16)" index="776679" value="1"/>
  <variable name="X(19,20,79)" index="780606" value="1"/>
  <variable name="X(19,48,985)" index="785376" value="1"/>
  <variable name="X(19,89,78)" index="788333" value="1"/>
  <variable name="X(20,19,1006)" index="793125" value="1"/>
  <variable name="X(20,21,989)" index="796972" value="1"/>
  <variable name="X(20,90,79)" index="799926" value="1"/>
  <variable name="X(21,20,1074)" index="804785" value="1"/>
  <variable name="X(21,22,18)" index="807593" value="1"/>
  <variable name="X(21,48,1056)" index="812495" value="1"/>
  <variable name="X(21,91,17)" index="815320" value="1"/>
  <variable name="X(22,21,1124)" index="820291" value="1"/>
  <variable name="X(22,23,991)" index="824022" value="1"/>
  <variable name="X(22,92,18)" index="826913" value="1"/>
  <variable name="X(23,22,473)" index="831232" value="1"/>
  <variable name="X(23,24,20)" index="834643" value="1"/>
  <variable name="X(23,25,476)" index="838963" value="1"/>
  <variable name="X(23,55,1046)" index="843397" value="1"/>
  <variable name="X(23,93,19)" index="846234" value="1"/>
  <variable name="X(24,23,1258)" index="851337" value="1"/>
  <variable name="X(24,94,20)" index="853963" value="1"/>
  <variable name="X(25,23,609)" index="858416" value="1"/>
  <variable name="X(25,26,477)" index="862148" value="1"/>
  <variable name="X(25,95,21)" index="865556" value="1"/>
  <variable name="X(26,25,21)" index="869420" value="1"/>
  <variable name="X(26,54,1035)" index="874298" value="1"/>
  <variable name="X(26,96,22)" index="877149" value="1"/>
  <variable name="X(27,16,14)" index="881005" value="1"/>
  <variable name="X(27,32,662)" index="885517" value="1"/>
  <variable name="X(27,97,23)" index="888742" value="1"/>
  <variable name="X(28,1,128)" index="892711" value="1"/>
  <variable name="X(28,4,2)" index="896449" value="1"/>
  <variable name="X(28,10,11)" index="900322" value="1"/>
  <variable name="X(28,98,24)" index="904199" value="1"/>
  <variable name="X(29,66,55)" index="908094" value="1"/>
  <variable name="X(29,67,11)" index="911914" value="1"/>
  <variable name="X(29,68,656)" index="916423" value="1"/>
  <variable name="X(29,99,25)" index="919656" value="1"/>
  <variable name="X(30,14,12)" index="923507" value="1"/>
  <variable name="X(30,47,656)" index="928015" value="1"/>
  <variable name="X(30,68,11)" index="931234" value="1"/>
  <variable name="X(30,100,26)" index="935113" value="1"/>
  <variable name="X(31,46,496)" index="939447" value="1"/>
  <variable name="X(31,60,52)" index="942867" value="1"/>
  <variable name="X(31,101,27)" index="946706" value="1"/>
  <variable name="X(32,14,333)" index="950876" value="1"/>
  <variable name="X(32,27,14)" index="954421" value="1"/>
  <variable name="X(32,45,144)" index="958415" value="1"/>
  <variable name="X(32,50,549)" index="962684" value="1"/>
  <variable name="X(32,102,28)" index="966027" value="1"/>
  <variable name="X(33,45,1708)" index="971571" value="1"/>
  <variable name="X(33,60,1711)" index="975438" value="1"/>
  <variable name="X(33,103,29)" index="977620" value="1"/>
  <variable name="X(34,43,662)" index="982117" value="1"/>
  <variable name="X(34,46,27)" index="985346" value="1"/>
  <variable name="X(34,50,75)" index="989258" value="1"/>
  <variable name="X(34,104,30)" index="993077" value="1"/>
  <variable name="X(35,2,129)" index="997040" value="1"/>
  <variable name="X(35,4,63)" index="1000838" value="1"/>
  <variable name="X(35,105,31)" index="1004670" value="1"/>
  <variable name="X(36,52,45)" index="1008548" value="1"/>
  <variable name="X(36,53,46)" index="1012413" value="1"/>
  <variable name="X(36,54,1856)" index="1018087" value="1"/>
  <variable name="X(36,106,32)" index="1020127" value="1"/>
  <variable name="X(37,38,1922)" index="1025881" value="1"/>
  <variable name="X(37,107,33)" index="1027856" value="1"/>
  <variable name="X(38,2,1922)" index="1033609" value="1"/>
  <variable name="X(38,37,33)" index="1035584" value="1"/>
  <variable name="X(38,108,34)" index="1039449" value="1"/>
  <variable name="X(39,7,662)" index="1043941" value="1"/>
  <variable name="X(39,42,15)" index="1047158" value="1"/>
  <variable name="X(39,43,27)" index="1051034" value="1"/>
  <variable name="X(39,109,165)" index="1055036" value="1"/>
  <variable name="X(40,41,230)" index="1058965" value="1"/>
  <variable name="X(40,56,15)" index="1062614" value="1"/>
  <variable name="X(40,110,98)" index="1066561" value="1"/>
  <variable name="X(41,40,15)" index="1070342" value="1"/>
  <variable name="X(41,42,492)" index="1074683" value="1"/>
  <variable name="X(41,111,35)" index="1078090" value="1"/>
  <variable name="X(42,39,857)" index="1082776" value="1"/>
  <variable name="X(42,41,15)" index="1085798" value="1"/>
  <variable name="X(42,112,36)" index="1089683" value="1"/>
  <variable name="X(43,34,27)" index="1093538" value="1"/>
  <variable name="X(43,39,662)" index="1098037" value="1"/>
  <variable name="X(43,113,37)" index="1101276" value="1"/>
  <variable name="X(44,47,2351)" index="1107454" value="1"/>
  <variable name="X(44,114,38)" index="1109005" value="1"/>
  <variable name="X(45,32,464)" index="1113295" value="1"/>
  <variable name="X(45,33,29)" index="1116724" value="1"/>
  <variable name="X(45,46,1708)" index="1122267" value="1"/>
  <variable name="X(45,60,144)" index="1124567" value="1"/>
  <variable name="X(45,115,39)" index="1128326" value="1"/>
  <variable name="X(46,31,27)" index="1132178" value="1"/>
  <variable name="X(46,34,887)" index="1136902" value="1"/>
  <variable name="X(46,45,29)" index="1139908" value="1"/>
  <variable name="X(46,50,3321)" index="1147064" value="1"/>
  <variable name="X(46,116,40)" index="1147647" value="1"/>
  <variable name="X(47,10,656)" index="1152127" value="1"/>
  <variable name="X(47,30,11)" index="1155346" value="1"/>
  <variable name="X(47,44,38)" index="1159237" value="1"/>
  <variable name="X(47,117,41)" index="1163104" value="1"/>
  <variable name="X(48,19,78)" index="1167005" value="1"/>
  <variable name="X(48,21,17)" index="1170808" value="1"/>
  <variable name="X(48,49,985)" index="1175640" value="1"/>
  <variable name="X(48,118,42)" index="1178561" value="1"/>
  <variable name="X(49,9,8)" index="1182391" value="1"/>
  <variable name="X(49,48,17)" index="1186264" value="1"/>
  <variable name="X(49,58,454)" index="1190565" value="1"/>
  <variable name="X(49,119,43)" index="1194018" value="1"/>
  <variable name="X(50,32,75)" index="1197914" value="1"/>
  <variable name="X(50,34,552)" index="1202255" value="1"/>
  <variable name="X(50,46,549)" index="1206116" value="1"/>
  <variable name="X(50,120,568)" index="1209999" value="1"/>
  <variable name="X(51,9,2773)" index="1216068" value="1"/>
  <variable name="X(51,55,19)" index="1217178" value="1"/>
  <variable name="X(51,58,1190)" index="1222213" value="1"/>
  <variable name="X(51,121,44)" index="1224931" value="1"/>
  <variable name="X(52,36,2827)" index="1231578" value="1"/>
  <variable name="X(52,122,45)" index="1232660" value="1"/>
  <variable name="X(53,36,2886)" index="1239365" value="1"/>
  <variable name="X(53,123,46)" index="1240389" value="1"/>
  <variable name="X(54,12,1134)" index="1245341" value="1"/>
  <variable name="X(54,26,21)" index="1248092" value="1"/>
  <variable name="X(54,36,32)" index="1251967" value="1"/>
  <variable name="X(54,124,47)" index="1255846" value="1"/>
  <variable name="X(55,9,1132)" index="1260795" value="1"/>
  <variable name="X(55,23,19)" index="1263546" value="1"/>
  <variable name="X(55,51,1104)" index="1268495" value="1"/>
  <variable name="X(55,125,48)" index="1271303" value="1"/>
  <variable name="X(56,17,15)" index="1275134" value="1"/>
  <variable name="X(56,40,230)" index="1279213" value="1"/>
  <variable name="X(56,57,664)" index="1283511" value="1"/>
  <variable name="X(56,126,49)" index="1286760" value="1"/>
  <variable name="X(57,56,210)" index="1290785" value="1"/>
  <variable name="X(57,58,664)" index="1295103" value="1"/>
  <variable name="X(57,127,50)" index="1298353" value="1"/>
  <variable name="X(58,6,454)" index="1302621" value="1"/>
  <variable name="X(58,49,8)" index="1306039" value="1"/>
  <variable name="X(58,51,19)" index="1309914" value="1"/>
  <variable name="X(58,57,50)" index="1313809" value="1"/>
  <variable name="X(58,128,51)" index="1317674" value="1"/>
  <variable name="X(59,18,144)" index="1321631" value="1"/>
  <variable name="X(59,60,224)" index="1325575" value="1"/>
  <variable name="X(59,129,52)" index="1329267" value="1"/>
  <variable name="X(60,31,284)" index="1333363" value="1"/>
  <variable name="X(60,33,224)" index="1337167" value="1"/>
  <variable name="X(60,45,297)" index="1341104" value="1"/>
  <variable name="X(60,59,52)" index="1344723" value="1"/>
  <variable name="X(60,130,53)" index="1348588" value="1"/>
  <variable name="X(61,69,194)" index="1352593" value="1"/>
  <variable name="X(61,70,708)" index="1356971" value="1"/>
  <variable name="X(61,131,118)" index="1360245" value="1"/>
  <variable name="X(62,3,3341)" index="1367332" value="1"/>
  <variable name="X(62,70,61)" index="1367916" value="1"/>
  <variable name="X(62,132,54)" index="1371773" value="1"/>
  <variable name="X(63,64,3407)" index="1378990" value="1"/>
  <variable name="X(63,133,55)" index="1379502" value="1"/>
  <variable name="X(64,63,55)" index="1383366" value="1"/>
  <variable name="X(64,65,57)" index="1387232" value="1"/>
  <variable name="X(64,66,3407)" index="1394446" value="1"/>
  <variable name="X(64,134,56)" index="1394959" value="1"/>
  <variable name="X(65,64,3529)" index="1402296" value="1"/>
  <variable name="X(65,135,57)" index="1402688" value="1"/>
  <variable name="X(66,29,3407)" index="1409902" value="1"/>
  <variable name="X(66,64,55)" index="1410414" value="1"/>
  <variable name="X(66,136,123)" index="1414346" value="1"/>
  <variable name="X(67,13,11)" index="1418098" value="1"/>
  <variable name="X(67,29,656)" index="1422607" value="1"/>
  <variable name="X(67,137,58)" index="1425873" value="1"/>
  <variable name="X(68,29,11)" index="1429690" value="1"/>
  <variable name="X(68,30,656)" index="1434199" value="1"/>
  <variable name="X(68,69,60)" index="1437467" value="1"/>
  <variable name="X(68,138,59)" index="1441330" value="1"/>
  <variable name="X(69,61,708)" index="1445843" value="1"/>
  <variable name="X(69,68,3352)" index="1452351" value="1"/>
  <variable name="X(69,139,60)" index="1452923" value="1"/>
  <variable name="X(70,61,118)" index="1456845" value="1"/>
  <variable name="X(70,62,708)" index="1461299" value="1"/>
  <variable name="X(70,140,61)" index="1464516" value="1"/>
 </variables>
</CPLEXSolution>
